1820
1540
1472
1701
1508
1291
143
1304
1189
777
1546
503
1800
206
448
511
460
833
1440
1276
1450
570
1021
407
1767
124
180
855
1665
82
1788
1753
669
1541
2071
1726
1933
1242
1222
1327
1976
896
507
2113
2132
1866
2176
1474
106
2078
